Minimize
 obj: 0 X_0_1
Subject To
 out_0:
  + 1 X_0_1 + 1 X_0_2 + 1 X_0_3 + 1 X_0_4 + 1 X_0_5 + 1 X_0_6 + 1 X_0_7 + 1 X_0_8
  + 1 X_0_9
  = 1
 in_0:
  + 1 X_1_0 + 1 X_2_0 + 1 X_3_0 + 1 X_4_0 + 1 X_5_0 + 1 X_6_0 + 1 X_7_0 + 1 X_8_0
  + 1 X_9_0
  = 1
 out_1:
  + 1 X_1_0 + 1 X_1_2 + 1 X_1_3 + 1 X_1_4 + 1 X_1_5 + 1 X_1_6 + 1 X_1_7 + 1 X_1_8
  + 1 X_1_9
  = 1
 in_1:
  + 1 X_0_1 + 1 X_2_1 + 1 X_3_1 + 1 X_4_1 + 1 X_5_1 + 1 X_6_1 + 1 X_7_1 + 1 X_8_1
  + 1 X_9_1
  = 1
 out_2:
  + 1 X_2_0 + 1 X_2_1 + 1 X_2_3 + 1 X_2_4 + 1 X_2_5 + 1 X_2_6 + 1 X_2_7 + 1 X_2_8
  + 1 X_2_9
  = 1
 in_2:
  + 1 X_0_2 + 1 X_1_2 + 1 X_3_2 + 1 X_4_2 + 1 X_5_2 + 1 X_6_2 + 1 X_7_2 + 1 X_8_2
  + 1 X_9_2
  = 1
 out_3:
  + 1 X_3_0 + 1 X_3_1 + 1 X_3_2 + 1 X_3_4 + 1 X_3_5 + 1 X_3_6 + 1 X_3_7 + 1 X_3_8
  + 1 X_3_9
  = 1
 in_3:
  + 1 X_0_3 + 1 X_1_3 + 1 X_2_3 + 1 X_4_3 + 1 X_5_3 + 1 X_6_3 + 1 X_7_3 + 1 X_8_3
  + 1 X_9_3
  = 1
 out_4:
  + 1 X_4_0 + 1 X_4_1 + 1 X_4_2 + 1 X_4_3 + 1 X_4_5 + 1 X_4_6 + 1 X_4_7 + 1 X_4_8
  + 1 X_4_9
  = 1
 in_4:
  + 1 X_0_4 + 1 X_1_4 + 1 X_2_4 + 1 X_3_4 + 1 X_5_4 + 1 X_6_4 + 1 X_7_4 + 1 X_8_4
  + 1 X_9_4
  = 1
 out_5:
  + 1 X_5_0 + 1 X_5_1 + 1 X_5_2 + 1 X_5_3 + 1 X_5_4 + 1 X_5_6 + 1 X_5_7 + 1 X_5_8
  + 1 X_5_9
  = 1
 in_5:
  + 1 X_0_5 + 1 X_1_5 + 1 X_2_5 + 1 X_3_5 + 1 X_4_5 + 1 X_6_5 + 1 X_7_5 + 1 X_8_5
  + 1 X_9_5
  = 1
 out_6:
  + 1 X_6_0 + 1 X_6_1 + 1 X_6_2 + 1 X_6_3 + 1 X_6_4 + 1 X_6_5 + 1 X_6_7 + 1 X_6_8
  + 1 X_6_9
  = 1
 in_6:
  + 1 X_0_6 + 1 X_1_6 + 1 X_2_6 + 1 X_3_6 + 1 X_4_6 + 1 X_5_6 + 1 X_7_6 + 1 X_8_6
  + 1 X_9_6
  = 1
 out_7:
  + 1 X_7_0 + 1 X_7_1 + 1 X_7_2 + 1 X_7_3 + 1 X_7_4 + 1 X_7_5 + 1 X_7_6 + 1 X_7_8
  + 1 X_7_9
  = 1
 in_7:
  + 1 X_0_7 + 1 X_1_7 + 1 X_2_7 + 1 X_3_7 + 1 X_4_7 + 1 X_5_7 + 1 X_6_7 + 1 X_8_7
  + 1 X_9_7
  = 1
 out_8:
  + 1 X_8_0 + 1 X_8_1 + 1 X_8_2 + 1 X_8_3 + 1 X_8_4 + 1 X_8_5 + 1 X_8_6 + 1 X_8_7
  + 1 X_8_9
  = 1
 in_8:
  + 1 X_0_8 + 1 X_1_8 + 1 X_2_8 + 1 X_3_8 + 1 X_4_8 + 1 X_5_8 + 1 X_6_8 + 1 X_7_8
  + 1 X_9_8
  = 1
 out_9:
  + 1 X_9_0 + 1 X_9_1 + 1 X_9_2 + 1 X_9_3 + 1 X_9_4 + 1 X_9_5 + 1 X_9_6 + 1 X_9_7
  + 1 X_9_8
  = 1
 in_9:
  + 1 X_0_9 + 1 X_1_9 + 1 X_2_9 + 1 X_3_9 + 1 X_4_9 + 1 X_5_9 + 1 X_6_9 + 1 X_7_9
  + 1 X_8_9
  = 1
 mtz_1_2:
  + 1 U1 - 1 U2 + 9 X_1_2
  <= 8
 mtz_1_3:
  + 1 U1 - 1 U3 + 9 X_1_3
  <= 8
 mtz_1_4:
  + 1 U1 - 1 U4 + 9 X_1_4
  <= 8
 mtz_1_5:
  + 1 U1 - 1 U5 + 9 X_1_5
  <= 8
 mtz_1_6:
  + 1 U1 - 1 U6 + 9 X_1_6
  <= 8
 mtz_1_7:
  + 1 U1 - 1 U7 + 9 X_1_7
  <= 8
 mtz_1_8:
  + 1 U1 - 1 U8 + 9 X_1_8
  <= 8
 mtz_1_9:
  + 1 U1 - 1 U9 + 9 X_1_9
  <= 8
 mtz_2_1:
  + 1 U2 - 1 U1 + 9 X_2_1
  <= 8
 mtz_2_3:
  + 1 U2 - 1 U3 + 9 X_2_3
  <= 8
 mtz_2_4:
  + 1 U2 - 1 U4 + 9 X_2_4
  <= 8
 mtz_2_5:
  + 1 U2 - 1 U5 + 9 X_2_5
  <= 8
 mtz_2_6:
  + 1 U2 - 1 U6 + 9 X_2_6
  <= 8
 mtz_2_7:
  + 1 U2 - 1 U7 + 9 X_2_7
  <= 8
 mtz_2_8:
  + 1 U2 - 1 U8 + 9 X_2_8
  <= 8
 mtz_2_9:
  + 1 U2 - 1 U9 + 9 X_2_9
  <= 8
 mtz_3_1:
  + 1 U3 - 1 U1 + 9 X_3_1
  <= 8
 mtz_3_2:
  + 1 U3 - 1 U2 + 9 X_3_2
  <= 8
 mtz_3_4:
  + 1 U3 - 1 U4 + 9 X_3_4
  <= 8
 mtz_3_5:
  + 1 U3 - 1 U5 + 9 X_3_5
  <= 8
 mtz_3_6:
  + 1 U3 - 1 U6 + 9 X_3_6
  <= 8
 mtz_3_7:
  + 1 U3 - 1 U7 + 9 X_3_7
  <= 8
 mtz_3_8:
  + 1 U3 - 1 U8 + 9 X_3_8
  <= 8
 mtz_3_9:
  + 1 U3 - 1 U9 + 9 X_3_9
  <= 8
 mtz_4_1:
  + 1 U4 - 1 U1 + 9 X_4_1
  <= 8
 mtz_4_2:
  + 1 U4 - 1 U2 + 9 X_4_2
  <= 8
 mtz_4_3:
  + 1 U4 - 1 U3 + 9 X_4_3
  <= 8
 mtz_4_5:
  + 1 U4 - 1 U5 + 9 X_4_5
  <= 8
 mtz_4_6:
  + 1 U4 - 1 U6 + 9 X_4_6
  <= 8
 mtz_4_7:
  + 1 U4 - 1 U7 + 9 X_4_7
  <= 8
 mtz_4_8:
  + 1 U4 - 1 U8 + 9 X_4_8
  <= 8
 mtz_4_9:
  + 1 U4 - 1 U9 + 9 X_4_9
  <= 8
 mtz_5_1:
  + 1 U5 - 1 U1 + 9 X_5_1
  <= 8
 mtz_5_2:
  + 1 U5 - 1 U2 + 9 X_5_2
  <= 8
 mtz_5_3:
  + 1 U5 - 1 U3 + 9 X_5_3
  <= 8
 mtz_5_4:
  + 1 U5 - 1 U4 + 9 X_5_4
  <= 8
 mtz_5_6:
  + 1 U5 - 1 U6 + 9 X_5_6
  <= 8
 mtz_5_7:
  + 1 U5 - 1 U7 + 9 X_5_7
  <= 8
 mtz_5_8:
  + 1 U5 - 1 U8 + 9 X_5_8
  <= 8
 mtz_5_9:
  + 1 U5 - 1 U9 + 9 X_5_9
  <= 8
 mtz_6_1:
  + 1 U6 - 1 U1 + 9 X_6_1
  <= 8
 mtz_6_2:
  + 1 U6 - 1 U2 + 9 X_6_2
  <= 8
 mtz_6_3:
  + 1 U6 - 1 U3 + 9 X_6_3
  <= 8
 mtz_6_4:
  + 1 U6 - 1 U4 + 9 X_6_4
  <= 8
 mtz_6_5:
  + 1 U6 - 1 U5 + 9 X_6_5
  <= 8
 mtz_6_7:
  + 1 U6 - 1 U7 + 9 X_6_7
  <= 8
 mtz_6_8:
  + 1 U6 - 1 U8 + 9 X_6_8
  <= 8
 mtz_6_9:
  + 1 U6 - 1 U9 + 9 X_6_9
  <= 8
 mtz_7_1:
  + 1 U7 - 1 U1 + 9 X_7_1
  <= 8
 mtz_7_2:
  + 1 U7 - 1 U2 + 9 X_7_2
  <= 8
 mtz_7_3:
  + 1 U7 - 1 U3 + 9 X_7_3
  <= 8
 mtz_7_4:
  + 1 U7 - 1 U4 + 9 X_7_4
  <= 8
 mtz_7_5:
  + 1 U7 - 1 U5 + 9 X_7_5
  <= 8
 mtz_7_6:
  + 1 U7 - 1 U6 + 9 X_7_6
  <= 8
 mtz_7_8:
  + 1 U7 - 1 U8 + 9 X_7_8
  <= 8
 mtz_7_9:
  + 1 U7 - 1 U9 + 9 X_7_9
  <= 8
 mtz_8_1:
  + 1 U8 - 1 U1 + 9 X_8_1
  <= 8
 mtz_8_2:
  + 1 U8 - 1 U2 + 9 X_8_2
  <= 8
 mtz_8_3:
  + 1 U8 - 1 U3 + 9 X_8_3
  <= 8
 mtz_8_4:
  + 1 U8 - 1 U4 + 9 X_8_4
  <= 8
 mtz_8_5:
  + 1 U8 - 1 U5 + 9 X_8_5
  <= 8
 mtz_8_6:
  + 1 U8 - 1 U6 + 9 X_8_6
  <= 8
 mtz_8_7:
  + 1 U8 - 1 U7 + 9 X_8_7
  <= 8
 mtz_8_9:
  + 1 U8 - 1 U9 + 9 X_8_9
  <= 8
 mtz_9_1:
  + 1 U9 - 1 U1 + 9 X_9_1
  <= 8
 mtz_9_2:
  + 1 U9 - 1 U2 + 9 X_9_2
  <= 8
 mtz_9_3:
  + 1 U9 - 1 U3 + 9 X_9_3
  <= 8
 mtz_9_4:
  + 1 U9 - 1 U4 + 9 X_9_4
  <= 8
 mtz_9_5:
  + 1 U9 - 1 U5 + 9 X_9_5
  <= 8
 mtz_9_6:
  + 1 U9 - 1 U6 + 9 X_9_6
  <= 8
 mtz_9_7:
  + 1 U9 - 1 U7 + 9 X_9_7
  <= 8
 mtz_9_8:
  + 1 U9 - 1 U8 + 9 X_9_8
  <= 8
 obj1:
  + 502 X_0_1 + 634 X_0_2 + 496 X_0_3 + 364 X_0_4 + 451 X_0_5 + 689 X_0_6 + 506 X_0_7 + 302 X_0_8
  + 112 X_0_9 + 502 X_1_0 + 441 X_1_2 + 315 X_1_3 + 748 X_1_4 + 607 X_1_5 + 281 X_1_6 + 185 X_1_7
  + 421 X_1_8 + 452 X_1_9 + 634 X_2_0 + 441 X_2_1 + 739 X_2_3 + 643 X_2_4 + 370 X_2_5 + 272 X_2_6
  + 256 X_2_7 + 752 X_2_8 + 666 X_2_9 + 496 X_3_0 + 315 X_3_1 + 739 X_3_2 + 841 X_3_4 + 802 X_3_5
  + 594 X_3_6 + 486 X_3_7 + 236 X_3_8 + 393 X_3_9 + 364 X_4_0 + 748 X_4_1 + 643 X_4_2 + 841 X_4_3
  + 289 X_4_5 + 824 X_4_6 + 661 X_4_7 + 666 X_4_8 + 476 X_4_9 + 451 X_5_0 + 607 X_5_1 + 370 X_5_2
  + 802 X_5_3 + 289 X_5_4 + 594 X_5_6 + 465 X_5_7 + 700 X_5_8 + 538 X_5_9 + 689 X_6_0 + 281 X_6_1
  + 272 X_6_2 + 594 X_6_3 + 824 X_6_4 + 594 X_6_5 + 182 X_6_7 + 690 X_6_8 + 675 X_6_9 + 506 X_7_0
  + 185 X_7_1 + 256 X_7_2 + 486 X_7_3 + 661 X_7_4 + 465 X_7_5 + 182 X_7_6 + 534 X_7_8 + 497 X_7_9
  + 302 X_8_0 + 421 X_8_1 + 752 X_8_2 + 236 X_8_3 + 666 X_8_4 + 700 X_8_5 + 690 X_8_6 + 534 X_8_7
  + 190 X_8_9 + 112 X_9_0 + 452 X_9_1 + 666 X_9_2 + 393 X_9_3 + 476 X_9_4 + 538 X_9_5 + 675 X_9_6
  + 497 X_9_7 + 190 X_9_8
  <= 1
 obj2:
  + 992 X_0_1 + 960 X_0_2 + 1167 X_0_3 + 977 X_0_4 + 832 X_0_5 + 893 X_0_6 + 330 X_0_7 + 899 X_0_8
  + 569 X_0_9 + 992 X_1_0 + 408 X_1_2 + 405 X_1_3 + 172 X_1_4 + 591 X_1_5 + 398 X_1_6 + 720 X_1_7
  + 96 X_1_8 + 624 X_1_9 + 960 X_2_0 + 408 X_2_1 + 223 X_2_3 + 237 X_2_4 + 232 X_2_5 + 752 X_2_6
  + 804 X_2_7 + 368 X_2_8 + 418 X_2_9 + 1167 X_3_0 + 405 X_3_1 + 223 X_3_2 + 259 X_3_4 + 444 X_3_5
  + 800 X_3_6 + 979 X_3_7 + 418 X_3_8 + 640 X_3_9 + 977 X_4_0 + 172 X_4_1 + 237 X_4_2 + 259 X_4_3
  + 438 X_4_5 + 548 X_4_6 + 749 X_4_7 + 159 X_4_8 + 525 X_4_9 + 832 X_5_0 + 591 X_5_1 + 232 X_5_2
  + 444 X_5_3 + 438 X_5_4 + 866 X_5_6 + 755 X_5_7 + 524 X_5_8 + 263 X_5_9 + 893 X_6_0 + 398 X_6_1
  + 752 X_6_2 + 800 X_6_3 + 548 X_6_4 + 866 X_6_5 + 565 X_6_7 + 391 X_6_8 + 776 X_6_9 + 330 X_7_0
  + 720 X_7_1 + 804 X_7_2 + 979 X_7_3 + 749 X_7_4 + 755 X_7_5 + 565 X_7_6 + 636 X_7_8 + 519 X_7_9
  + 899 X_8_0 + 96 X_8_1 + 368 X_8_2 + 418 X_8_3 + 159 X_8_4 + 524 X_8_5 + 391 X_8_6 + 636 X_8_7
  + 533 X_8_9 + 569 X_9_0 + 624 X_9_1 + 418 X_9_2 + 640 X_9_3 + 525 X_9_4 + 263 X_9_5 + 776 X_9_6
  + 519 X_9_7 + 533 X_9_8
  <= 2
 obj3:
  + 770 X_0_1 + 868 X_0_2 + 604 X_0_3 + 696 X_0_4 + 799 X_0_5 + 691 X_0_6 + 673 X_0_7 + 785 X_0_8
  + 846 X_0_9 + 770 X_1_0 + 804 X_1_2 + 361 X_1_3 + 932 X_1_4 + 144 X_1_5 + 1106 X_1_6 + 118 X_1_7
  + 392 X_1_8 + 96 X_1_9 + 868 X_2_0 + 804 X_2_1 + 471 X_2_3 + 324 X_2_4 + 682 X_2_5 + 556 X_2_6
  + 832 X_2_7 + 425 X_2_8 + 781 X_2_9 + 604 X_3_0 + 361 X_3_1 + 471 X_3_2 + 572 X_3_4 + 281 X_3_5
  + 756 X_3_6 + 365 X_3_7 + 182 X_3_8 + 373 X_3_9 + 696 X_4_0 + 932 X_4_1 + 324 X_4_2 + 572 X_4_3
  + 845 X_4_5 + 234 X_4_6 + 918 X_4_7 + 626 X_4_8 + 941 X_4_9 + 799 X_5_0 + 144 X_5_1 + 682 X_5_2
  + 281 X_5_3 + 845 X_5_4 + 1037 X_5_6 + 237 X_5_7 + 259 X_5_8 + 99 X_5_9 + 691 X_6_0 + 1106 X_6_1
  + 556 X_6_2 + 756 X_6_3 + 234 X_6_4 + 1037 X_6_5 + 1073 X_6_7 + 840 X_6_8 + 1129 X_6_9 + 673 X_7_0
  + 118 X_7_1 + 832 X_7_2 + 365 X_7_3 + 918 X_7_4 + 237 X_7_5 + 1073 X_7_6 + 446 X_7_8 + 214 X_7_9
  + 785 X_8_0 + 392 X_8_1 + 425 X_8_2 + 182 X_8_3 + 626 X_8_4 + 259 X_8_5 + 840 X_8_6 + 446 X_8_7
  + 357 X_8_9 + 846 X_9_0 + 96 X_9_1 + 781 X_9_2 + 373 X_9_3 + 941 X_9_4 + 99 X_9_5 + 1129 X_9_6
  + 214 X_9_7 + 357 X_9_8
  <= 3
 obj4:
  + 276 X_0_1 + 493 X_0_2 + 795 X_0_3 + 546 X_0_4 + 355 X_0_5 + 621 X_0_6 + 453 X_0_7 + 635 X_0_8
  + 454 X_0_9 + 276 X_1_0 + 761 X_1_2 + 1025 X_1_3 + 785 X_1_4 + 569 X_1_5 + 588 X_1_6 + 721 X_1_7
  + 613 X_1_8 + 392 X_1_9 + 493 X_2_0 + 761 X_2_1 + 383 X_2_3 + 181 X_2_4 + 495 X_2_5 + 809 X_2_6
  + 290 X_2_7 + 801 X_2_8 + 743 X_2_9 + 795 X_3_0 + 1025 X_3_1 + 383 X_3_2 + 251 X_3_4 + 877 X_3_5
  + 833 X_3_6 + 668 X_3_7 + 811 X_3_8 + 858 X_3_9 + 546 X_4_0 + 785 X_4_1 + 181 X_4_2 + 251 X_4_3
  + 644 X_4_5 + 698 X_4_6 + 466 X_4_7 + 684 X_4_8 + 673 X_4_9 + 355 X_5_0 + 569 X_5_1 + 495 X_5_2
  + 877 X_5_3 + 644 X_5_4 + 965 X_5_6 + 254 X_5_7 + 975 X_5_8 + 807 X_5_9 + 621 X_6_0 + 588 X_6_1
  + 809 X_6_2 + 833 X_6_3 + 698 X_6_4 + 965 X_6_5 + 968 X_6_7 + 33 X_6_8 + 196 X_6_9 + 453 X_7_0
  + 721 X_7_1 + 290 X_7_2 + 668 X_7_3 + 466 X_7_4 + 254 X_7_5 + 968 X_7_6 + 969 X_7_8 + 849 X_7_9
  + 635 X_8_0 + 613 X_8_1 + 801 X_8_2 + 811 X_8_3 + 684 X_8_4 + 975 X_8_5 + 33 X_8_6 + 969 X_8_7
  + 222 X_8_9 + 454 X_9_0 + 392 X_9_1 + 743 X_9_2 + 858 X_9_3 + 673 X_9_4 + 807 X_9_5 + 196 X_9_6
  + 849 X_9_7 + 222 X_9_8
  <= 4
 obj5:
  + 80 X_0_1 + 505 X_0_2 + 557 X_0_3 + 734 X_0_4 + 568 X_0_5 + 272 X_0_6 + 525 X_0_7 + 323 X_0_8
  + 685 X_0_9 + 80 X_1_0 + 482 X_1_2 + 632 X_1_3 + 810 X_1_4 + 621 X_1_5 + 191 X_1_6 + 453 X_1_7
  + 246 X_1_8 + 726 X_1_9 + 505 X_2_0 + 482 X_2_1 + 975 X_2_3 + 901 X_2_4 + 1061 X_2_5 + 498 X_2_6
  + 752 X_2_7 + 416 X_2_8 + 1188 X_2_9 + 557 X_3_0 + 632 X_3_1 + 975 X_3_2 + 490 X_3_4 + 283 X_3_5
  + 810 X_3_6 + 993 X_3_7 + 879 X_3_8 + 435 X_3_9 + 734 X_4_0 + 810 X_4_1 + 901 X_4_2 + 490 X_4_3
  + 769 X_4_5 + 998 X_4_6 + 1258 X_4_7 + 1020 X_4_8 + 924 X_4_9 + 568 X_5_0 + 621 X_5_1 + 1061 X_5_2
  + 283 X_5_3 + 769 X_5_4 + 757 X_5_6 + 861 X_5_7 + 848 X_5_8 + 160 X_5_9 + 272 X_6_0 + 191 X_6_1
  + 498 X_6_2 + 810 X_6_3 + 998 X_6_4 + 757 X_6_5 + 288 X_6_7 + 104 X_6_8 + 835 X_6_9 + 525 X_7_0
  + 453 X_7_1 + 752 X_7_2 + 993 X_7_3 + 1258 X_7_4 + 861 X_7_5 + 288 X_7_6 + 338 X_7_8 + 890 X_7_9
  + 323 X_8_0 + 246 X_8_1 + 416 X_8_2 + 879 X_8_3 + 1020 X_8_4 + 848 X_8_5 + 104 X_8_6 + 338 X_8_7
  + 933 X_8_9 + 685 X_9_0 + 726 X_9_1 + 1188 X_9_2 + 435 X_9_3 + 924 X_9_4 + 160 X_9_5 + 835 X_9_6
  + 890 X_9_7 + 933 X_9_8
  <= 5
Bounds
 1 <= U1 <= 9
 1 <= U2 <= 9
 1 <= U3 <= 9
 1 <= U4 <= 9
 1 <= U5 <= 9
 1 <= U6 <= 9
 1 <= U7 <= 9
 1 <= U8 <= 9
 1 <= U9 <= 9
Binary
 X_0_1
 X_0_2
 X_0_3
 X_0_4
 X_0_5
 X_0_6
 X_0_7
 X_0_8
 X_0_9
 X_1_0
 X_1_2
 X_1_3
 X_1_4
 X_1_5
 X_1_6
 X_1_7
 X_1_8
 X_1_9
 X_2_0
 X_2_1
 X_2_3
 X_2_4
 X_2_5
 X_2_6
 X_2_7
 X_2_8
 X_2_9
 X_3_0
 X_3_1
 X_3_2
 X_3_4
 X_3_5
 X_3_6
 X_3_7
 X_3_8
 X_3_9
 X_4_0
 X_4_1
 X_4_2
 X_4_3
 X_4_5
 X_4_6
 X_4_7
 X_4_8
 X_4_9
 X_5_0
 X_5_1
 X_5_2
 X_5_3
 X_5_4
 X_5_6
 X_5_7
 X_5_8
 X_5_9
 X_6_0
 X_6_1
 X_6_2
 X_6_3
 X_6_4
 X_6_5
 X_6_7
 X_6_8
 X_6_9
 X_7_0
 X_7_1
 X_7_2
 X_7_3
 X_7_4
 X_7_5
 X_7_6
 X_7_8
 X_7_9
 X_8_0
 X_8_1
 X_8_2
 X_8_3
 X_8_4
 X_8_5
 X_8_6
 X_8_7
 X_8_9
 X_9_0
 X_9_1
 X_9_2
 X_9_3
 X_9_4
 X_9_5
 X_9_6
 X_9_7
 X_9_8
End
